
100
24770

429 329
1084 984
1060 960
1019 919
890 790
976 876
101 1
727 627
348 248
831 731
533 433
661 561
643 543
677 577
928 828
1082 982
446 346
907 807
990 890
493 393
224 124
598 498
865 765
625 525
285 185
806 706
425 325
987 887
269 169
694 594
486 386
1085 985
239 139
981 881
518 418
472 372
309 209
595 495
1030 930
1100 1000
1040 940
712 612
337 237
608 508
750 650
396 296
1087 987
185 85
335 235
304 204
268 168
164 64
340 240
474 374
1040 940
645 545
725 625
449 349
271 171
664 564
829 729
186 86
750 650
310 210
790 690
456 356
248 148
241 141
893 793
641 541
186 86
1006 906
377 277
380 280
103 3
401 301
660 560
998 898
399 299
598 498
180 80
787 687
401 301
476 376
371 271
919 819
1081 981
238 138
552 452
207 107
851 751
1008 908
227 127
783 683
404 304
551 451
673 573
485 385
752 652
427 327
